51 51
14 8
21 15
16 8
35 11
51 3
37 20
6 16
4 12
22 19
42 7
19 15
38 18
18 24
43 22
29 13
33 23
12 12
1 1
15 21
31 17
32 5
41 9
11 9
50 22
47 11
44 6
46 13
5 19
30 24
40 26
9 2
36 1
2 25
45 4
24 7
26 18
23 21
8 5
27 14
7 20
3 25
10 3
20 10
39 10
25 23
17 4
34 6
49 2
13 17
28 16
48 14
